c read Graph
c width = 243
c time = 366 ms
c width = 23
c time = 812 ms
c width = 22
c time = 1071 ms
c width = 21
c time = 6619 ms
c width = 20
c time = 14279 ms
c width = 19
c time = 18816 ms
c width = 18
c time = 28105 ms
c width = 17
c time = 39723 ms
c width = 16
c time = 46286 ms
c width = 16
c time = 47347 ms
s td 229 17 256
b 1 1 2 17
b 2 2 3 17 18
b 3 14 15 31 32
b 4 3 17 18 33
b 5 14 31 32 48
b 6 209 225 226 242
b 7 224 239 240 255
b 8 209 226 242 243
b 9 224 239 254 255
b 10 3 4 5 20
b 11 3 5 19 20 34 49
b 12 5 19 20 34 36 49 51
b 13 5 20 34 36 49 51 66
b 14 34 49 50 51 66
b 15 5 20 36 49 51 66 81
b 16 49 65 66 81
b 17 5 20 22 36 37 51 66 81
b 18 5 20 21 22 37
b 19 5 22 36 37 39 51 56 66 73 81 90 107 124 141 143 158 160
b 20 22 36 37 39 51 54 56 66 73 81 90 107 124 141 143 158 160
b 21 36 37 39 51 53 54 56 66 73 81 90 107 124 141 143 158 160
b 22 36 39 51 53 54 56 66 68 73 81 90 107 124 141 143 158 160
b 23 39 51 53 54 56 66 68 73 81 83 90 107 124 141 143 158 160
b 24 39 53 54 56 66 68 73 81 83 90 98 107 124 141 143 158 160
b 25 66 81 82 83 98
b 26 39 53 54 56 68 71 73 81 83 90 98 107 124 141 143 158 160
b 27 53 54 56 68 70 71 73 81 83 90 98 107 124 141 143 158 160
b 28 53 56 68 70 71 73 81 83 85 90 98 107 124 141 143 158 160
b 29 56 68 70 71 73 81 83 85 88 90 98 107 124 141 143 158 160
b 30 68 70 71 73 81 83 85 88 90 98 100 107 124 141 143 158 160
b 31 70 71 73 81 83 85 87 88 90 98 100 107 124 141 143 158 160
b 32 70 73 81 83 85 87 88 90 98 100 102 107 124 141 143 158 160
b 33 70 85 87 88 90 98 100 102 107 124 141 143 158 160
b 34 70 85 86 87 102
b 35 73 81 83 85 87 88 90 98 100 102 105 107 124 141 143 158 160
b 36 81 83 85 87 88 90 98 100 102 105 107 113 124 141 143 158 160
b 37 83 85 87 88 90 98 99 100 102 105 107 113 124 141 143 158 160
b 38 85 87 88 90 98 99 100 101 102 105 107 113 124 141 143 158 160
b 39 87 88 90 98 99 100 101 102 104 105 107 113 124 141 143 158 160
b 40 87 90 98 99 100 101 102 104 105 107 113 119 124 141 143 158 160
b 41 90 98 99 100 101 102 104 105 107 113 119 122 124 141 143 158 160
b 42 98 99 100 101 102 104 105 107 113 115 119 122 124 141 143 158 160
b 43 98 100 101 102 104 105 107 113 115 119 122 124 130 141 143 158 160
b 44 100 101 102 104 105 107 113 115 117 119 122 124 130 141 143 158 160
b 45 100 102 104 105 107 113 115 117 119 122 124 130 132 141 143 158 160
b 46 102 104 105 107 113 115 117 119 122 124 130 132 134 141 143 158 160
b 47 104 105 107 113 115 117 119 122 124 130 132 134 141 143 145 158 160
b 48 104 105 107 115 117 119 122 124 130 132 134 141 143 145 147 158 160
b 49 104 105 107 117 119 122 124 130 132 134 141 143 145 147 158 160 162
b 50 130 145 146 147 162
b 51 104 105 107 117 119 121 122 124 132 134 141 143 145 147 158 160 162
b 52 104 107 117 119 121 122 124 132 134 136 141 143 145 147 158 160 162
b 53 107 117 119 121 122 124 132 134 136 141 143 145 147 149 158 160 162
b 54 107 119 121 122 124 132 134 135 136 141 143 145 147 149 158 160 162
b 55 107 121 122 124 132 134 135 136 141 143 145 147 149 158 160 162 164
b 56 107 121 122 124 134 135 136 141 143 145 147 149 150 158 160 162 164
b 57 107 121 122 124 135 136 141 143 145 147 149 150 158 160 162 164 179
b 58 107 121 122 124 135 136 141 143 145 149 150 158 160 162 164 165 179
b 59 107 121 122 124 135 136 141 143 145 150 158 160 162 164 165 179 180
b 60 107 121 122 124 135 136 139 141 143 145 150 158 160 162 165 179 180
b 61 121 122 124 135 136 138 139 141 143 145 150 158 160 162 165 179 180
b 62 121 124 135 136 138 139 141 143 145 150 153 158 160 162 165 179 180
b 63 124 135 136 138 139 140 141 143 145 150 153 158 160 162 165 179 180
b 64 135 136 138 139 140 141 143 145 150 151 153 158 160 162 165 179 180
b 65 136 138 139 140 141 143 145 150 151 152 153 158 160 162 165 179 180
b 66 138 139 140 141 143 145 150 151 152 153 155 158 160 162 165 179 180
b 67 138 140 141 143 145 150 151 152 153 155 156 158 160 162 165 179 180
b 68 138 141 143 145 150 151 152 153 155 156 158 160 161 162 165 179 180
b 69 138 141 143 150 151 152 153 155 156 158 160 161 162 165 166 179 180
b 70 138 141 143 151 152 153 155 156 158 160 161 162 165 166 167 179 180
b 71 138 141 143 152 153 155 156 158 160 161 162 165 166 167 177 179 180
b 72 138 141 143 152 153 155 156 158 160 162 165 166 167 177 178 179 180
b 73 138 141 143 152 153 155 156 158 160 165 166 167 177 178 179 180 181
b 74 138 141 143 152 153 155 156 158 160 166 167 177 178 179 180 181 182
b 75 138 141 143 152 153 155 156 158 160 167 177 178 179 180 181 182 193
b 76 138 141 143 152 153 155 156 158 160 167 178 179 180 181 182 193 194
b 77 138 141 143 152 153 155 156 158 160 167 179 180 181 182 193 194 195
b 78 138 141 143 152 153 155 156 158 160 167 180 181 182 193 194 195 197
b 79 138 141 143 152 153 155 156 158 160 167 180 182 193 194 195 197 212
b 80 138 141 143 152 153 155 156 158 160 167 182 193 194 195 197 209 212
b 81 138 141 143 152 153 155 156 158 160 167 182 194 195 197 209 210 212
b 82 138 141 143 152 153 155 156 158 160 167 182 195 197 209 210 212 227
b 83 138 141 143 152 153 155 156 158 160 167 182 197 209 210 212 227 244
b 84 138 141 143 152 153 155 156 158 160 167 182 197 210 212 227 229 244
b 85 138 141 143 152 153 155 156 158 160 167 182 197 210 212 229 244 246
b 86 229 244 245 246
b 87 212 227 228 229 244
b 88 209 210 227 243 244
b 89 209 210 226 227 243
b 90 195 210 211 212 227
b 91 180 195 196 197 212
b 92 121 136 137 138 153
b 93 107 122 123 124 139
b 94 147 162 163 164 179
b 95 132 147 148 149 164
b 96 117 132 133 134 149
b 97 104 119 120 121 136
b 98 115 130 131 132 147
b 99 113 129 130 145
b 100 102 117 118 119 134
b 101 100 115 116 117 132
b 102 98 113 114 115 130
b 103 90 105 106 107 122
b 104 87 102 103 104 119
b 105 81 97 98 113
b 106 73 88 89 90 105
b 107 68 83 84 85 100
b 108 56 71 72 73 88
b 109 53 68 69 70 85
b 110 39 54 55 56 71
b 111 51 66 67 68 83
b 112 36 51 52 53 68
b 113 22 37 38 39 54
b 114 5 9 22 26 39 43 56 60 73 75 90 107 124 141 143 158 160
b 115 9 26 43 60 75 79 90 94 96 107 109 124 141 143 158 160
b 116 79 94 96 109 124 126 141 143 158 160
b 117 79 94 96 109 111 126 143 160
b 118 94 109 110 111 126
b 119 96 111 126 128 143 160
b 120 111 126 127 128 143
b 121 128 143 144 160
b 122 96 111 112 128
b 123 79 94 95 96 111
b 124 109 124 125 126 141
b 125 126 141 142 143 158
b 126 9 26 43 60 75 79 90 92 94 96 107 109 124
b 127 9 26 43 60 75 77 79 92 94 96 109
b 128 9 13 26 28 43 60 77 79 94 96
b 129 9 11 13 26 28 43
b 130 9 10 11 26
b 131 11 26 27 28 43
b 132 11 12 13 28
b 133 13 28 43 60 62 77 79 94 96
b 134 62 77 78 79 94
b 135 13 28 43 45 60 62 77 79 96
b 136 28 43 44 45 60
b 137 45 60 61 62 77
b 138 13 28 45 62 64 79 96
b 139 13 28 45 47 62 64 79
b 140 47 62 63 64 79
b 141 13 28 30 45 47 62 64
b 142 30 45 46 47 62
b 143 13 28 29 30 45
b 144 13 30 47 48 64
b 145 13 14 30 47 48
b 146 14 30 31 47 48
b 147 64 79 80 96
b 148 77 92 93 94 109
b 149 60 75 76 77 92
b 150 75 90 91 92 107
b 151 92 107 108 109 124
b 152 5 9 22 26 39 41 43 56 60 73 75 90
b 153 5 9 22 24 26 39 41 56
b 154 5 7 9 22 24 39
b 155 7 22 23 24 39
b 156 5 6 7 22
b 157 7 8 9 24
b 158 24 39 40 41 56
b 159 9 24 25 26 41
b 160 26 41 43 56 58 60 73 75 90
b 161 26 41 42 43 58
b 162 58 73 74 75 90
b 163 41 56 57 58 73
b 164 43 58 59 60 75
b 165 19 34 35 36 51
b 166 3 19 33 34 49
b 167 3 18 19 33 34
b 168 138 141 143 152 153 155 156 158 160 167 182 197 210 212 229 246
b 169 182 197 198 199 214
b 170 197 212 213 214 229
b 171 138 141 143 152 153 155 156 158 160 167 182 197 212 214 229 246
b 172 138 141 143 152 153 155 156 158 160 167 182 197 199 214 229 246
b 173 138 141 143 152 153 155 156 158 160 167 182 199 214 229 231 246 248
b 174 214 229 230 231 246 248
b 175 231 246 247 248
b 176 138 141 143 152 153 155 156 158 160 167 182 184 199 214 231 248
b 177 138 141 143 152 153 155 156 158 160 167 169 184 199 214 231 248
b 178 152 167 168 169 184
b 179 138 141 143 153 155 156 158 160 169 184 199 214 216 231 248
b 180 138 141 143 153 155 156 158 160 169 184 199 216 231 233 248
b 181 216 231 232 233 248
b 182 138 141 143 153 155 156 158 160 169 184 199 201 216 233 248
b 183 184 199 200 201 216
b 184 138 141 143 153 155 156 158 160 169 184 186 201 216 233 248
b 185 138 141 143 153 155 156 158 160 169 186 201 216 218 233 248
b 186 201 216 217 218 233
b 187 138 141 143 153 155 156 158 160 169 186 201 203 218 233 248
b 188 138 141 143 153 155 156 158 160 169 173 186 203 218 233 248
b 189 141 156 157 158 173
b 190 138 143 153 155 156 158 160 169 173 186 189 203 204 218 233 248
b 191 143 158 160 173 189 203 204 206 207 218 224 233 248
b 192 189 203 204 206 207 218 224 233 235 248 252
b 193 189 203 204 206 207 218 220 224 235 252
b 194 203 218 219 220 235
b 195 189 204 206 207 220 221 224 235 252
b 196 189 204 205 206 221
b 197 206 207 220 221 224 235 237 252
b 198 206 207 221 223 224 237 252
b 199 206 221 223 224 237 238 252
b 200 223 224 237 238 252 254
b 201 223 224 238 239 254
b 202 237 252 253 254
b 203 206 221 222 223 238
b 204 220 235 236 237 252
b 205 218 233 235 248 250 252
b 206 218 233 234 235 250
b 207 233 248 249 250
b 208 235 250 251 252
b 209 143 158 160 173 189 190 206 207 224
b 210 143 158 160 173 175 190 207 224
b 211 160 175 190 192 207 224
b 212 160 175 176 192
b 213 192 207 208 224
b 214 175 190 191 192 207
b 215 158 173 174 175 190
b 216 143 158 159 160 175
b 217 138 153 155 156 169 170 173 186 189 203 204
b 218 155 156 170 172 173 186 189 203 204
b 219 155 170 172 186 187 189 203 204
b 220 155 170 171 172 187
b 221 172 187 188 189 204
b 222 138 153 154 155 170
b 223 186 201 202 203 218
b 224 169 184 185 186 201
b 225 199 214 215 216 231
b 226 167 182 183 184 199
b 227 240 255 256
b 228 225 241 242
b 229 15 16 32
1 2
2 4
3 229
3 5
4 167
5 146
6 228
6 8
7 227
7 9
8 89
9 201
10 11
11 166
11 12
12 165
12 13
13 15
13 14
15 17
15 16
17 19
17 18
19 114
19 20
20 113
20 21
21 22
22 112
22 23
23 111
23 24
24 26
24 25
26 110
26 27
27 28
28 109
28 29
29 108
29 30
30 107
30 31
31 32
32 35
32 34
32 33
35 106
35 36
36 105
36 37
37 38
38 39
39 40
40 104
40 41
41 103
41 42
42 43
43 102
43 44
44 45
45 101
45 46
46 100
46 47
47 99
47 48
48 98
48 49
49 51
49 50
51 52
52 97
52 53
53 96
53 54
54 55
55 95
55 56
56 57
57 94
57 58
58 59
59 60
60 93
60 61
61 62
62 92
62 63
63 64
64 65
65 66
66 67
67 68
68 69
69 70
70 71
71 72
72 73
73 74
74 75
75 76
76 77
77 78
78 79
79 91
79 80
80 81
81 82
82 90
82 83
83 88
83 84
84 87
84 85
85 168
85 86
88 89
114 115
114 152
115 116
115 126
116 124
116 125
116 117
117 119
117 123
117 118
119 120
119 121
119 122
126 151
126 127
126 150
127 148
127 149
127 128
128 129
128 133
129 130
129 132
129 131
133 134
133 135
135 136
135 137
135 138
138 147
138 139
139 140
139 141
141 144
141 143
141 142
144 145
145 146
152 160
152 153
153 158
153 159
153 154
154 155
154 156
154 157
160 161
160 162
160 163
160 164
166 167
168 171
169 172
170 171
171 172
172 173
173 174
173 176
174 175
176 177
176 226
177 179
177 178
179 180
179 225
180 181
180 182
182 184
182 183
184 185
184 224
185 186
185 187
187 223
187 188
188 190
188 189
190 217
190 191
191 209
191 192
192 205
192 193
193 195
193 194
195 197
195 196
197 204
197 198
198 199
199 203
199 200
200 201
200 202
205 208
205 207
205 206
209 210
210 215
210 216
210 211
211 212
211 213
211 214
217 218
217 222
218 219
219 220
219 221
